Li15Na15(BO3)10 700C
1.0
  9.3159977300  0.0000000000  0.0000000000
  0.0000000000  9.3159977300  0.0000000000
  0.0000000000  0.0000000000  9.3159977300
  B  O  Na  Li
  10  30  15  15
Direct
  0.5917563762  0.2890707532  0.4047589725
  0.0187130867  0.2690541704  0.3707477753
  0.8824418547  0.1189630227  0.0402302268
  0.4079522281  0.3903962896  0.0891027153
  0.4199936972  0.8453532169  0.0300660801
  0.8713686506  0.7377997720  0.3818264551
  0.7608977892  0.9690994337  0.6891127101
  0.2781539876  0.0552611002  0.6585950787
  0.3448651391  0.6599909885  0.5941868648
  0.8616216974  0.5252023454  0.9169817565
  0.1046080251  0.2890220680  0.5025191771
  0.9616627194  0.1403531218  0.3443704781
  0.6549450853  0.3959719931  0.3294231346
  0.9850292636  0.3799150725  0.2711734356
  0.3255054873  0.4912369041  0.1828027164
  0.3788066786  0.2549553724  0.0956405287
  0.0187747706  0.1941920272  0.0211110039
  0.8725867034  0.9628093985  0.0569398471
  0.7616374438  0.2039193772  0.0562598066
  0.4902676071  0.4701570478  0.9954392080
  0.1576024413  0.9647309034  0.7121826917
  0.7930858422  0.8404465357  0.7507722187
  0.3367650609  0.0060888787  0.5300304224
  0.3418213073  0.1576253136  0.7424886139
  0.8603425799  0.0860016871  0.6886638242
  0.6291729210  0.9829443869  0.6393372046
  0.2733740720  0.8047795908  0.0076876168
  0.5218651518  0.9145435113  0.9407429072
  0.4590029435  0.8303123094  0.1753038646
  0.8499110862  0.6127110639  0.4688160116
  0.6184091940  0.1476005351  0.3863981613
  0.4808118604  0.3305196509  0.4872442863
  0.9951700310  0.7752525811  0.3157023049
  0.7533197949  0.8405683863  0.3875014355
  0.7970888400  0.4745260594  0.7905759692
  0.0163116453  0.5437892045  0.9229855090
  0.7894106842  0.5602477223  0.0686443193
  0.3154609834  0.6500621555  0.4448354689
  0.2328297891  0.6374145458  0.6986851910
  0.4885902118  0.7117814823  0.6516981552
  0.0244458190  0.7268065194  0.0682831508
  0.2350711960  0.5665695668  0.9384418890
  0.6878644532  0.4835271464  0.6048703733
  0.8994059479  0.2765126158  0.8022802721
  0.6255117992  0.6686486435  0.1872752033
  0.2338630427  0.0934320532  0.9689782150
  0.4661085205  0.8754570846  0.3905931936
  0.2894478985  0.3577543005  0.6212499950
  0.5300220169  0.1927196840  0.9123618954
  0.9843797722  0.5963113770  0.6985114170
  0.1685775118  0.8343157585  0.5057373022
  0.6370816991  0.0384470894  0.1751148046
  0.1498084897  0.4955813859  0.3632570790
  0.3153260097  0.1451854191  0.3283140480
  0.5771462829  0.6433752592  0.8625373713
  0.8593353325  0.5141216510  0.2838321442
  0.2991336890  0.7008379712  0.2088600991
  0.5118868380  0.8915257051  0.7309661868
  0.0250484150  0.1137666153  0.5562020019
  0.5087778347  0.1104095551  0.5455614197
  0.9831734733  0.9383488384  0.8440354278
  0.4349000547  0.4918135273  0.3608598898
  0.2398904517  0.8082220278  0.8136885726
  0.6590817477  0.4039301675  0.0581564818
  0.8283353891  0.2715446107  0.2646886999
  0.7452986826  0.8433258729  0.9700630060
  0.0317365765  0.3811367140  0.0671593915
  0.9056227259  0.9465895740  0.2588579480
  0.7562694747  0.0284763573  0.4469886770
  0.6768379385  0.7741276560  0.5723746801
