Li15Na15(BO3)10 800C
1.0
  9.3777826300  0.0000000000  0.0000000000
  0.0000000000  9.3777826300  0.0000000000
  0.0000000000  0.0000000000  9.3777826300
  B  O  Na  Li
  10  30  15  15
Direct
  0.7429261827  0.5509120063  0.4604852381
  0.0616463374  0.4254828173  0.3551242193
  0.1814974383  0.0568278048  0.0230051581
  0.4490675976  0.5068583723  0.1247832746
  0.7090389397  0.0219057789  0.2610692923
  0.1780234027  0.8714617980  0.3580742470
  0.8782575600  0.0425993263  0.7010872412
  0.4024766927  0.2774182682  0.6569772924
  0.4229507583  0.7513157600  0.6817096706
  0.9158057127  0.5307614798  0.9155414457
  0.0434690288  0.4714786547  0.5017830430
  0.1256885760  0.3000541272  0.3394794442
  0.7582636465  0.6531963235  0.3599810668
  0.9884122092  0.4801980418  0.2453235485
  0.3038349349  0.5364384120  0.0715674974
  0.4815735784  0.3742176433  0.1690949345
  0.1043001756  0.9131306967  0.0315389387
  0.1217785531  0.1877384112  0.0572124151
  0.3130583293  0.0586658127  0.9607252075
  0.5334077096  0.6292943044  0.1145200992
  0.5101501549  0.3046500705  0.7638357563
  0.8557839252  0.1044090331  0.5659087905
  0.4557130695  0.2447714788  0.5158820931
  0.2506882663  0.2592952363  0.7055706598
  0.9642494480  0.9214307294  0.7002102228
  0.8019128067  0.0706133230  0.8257596073
  0.7864125295  0.9344820830  0.1592784409
  0.5971728614  0.9515091085  0.3291163271
  0.7366043284  0.1711726509  0.2685180150
  0.2098041899  0.0173316429  0.4265685965
  0.6990488662  0.4198755639  0.4158542272
  0.7590063393  0.5963898144  0.6107587945
  0.2917159636  0.7807152533  0.3435418367
  0.0408943231  0.8190347847  0.3600179518
  0.0356045739  0.5353413399  0.8154421012
  0.8461391237  0.3939833986  0.9034151883
  0.8735632394  0.6390763275  0.9944624081
  0.4289730789  0.6074343042  0.6419590002
  0.3161373683  0.8079717981  0.7796453642
  0.4909418455  0.8710355835  0.6039329148
  0.5439024957  0.0082757897  0.8131560726
  0.8846488665  0.9009859825  0.9436431646
  0.5206811130  0.6715748584  0.3163208500
  0.2685513817  0.5826148184  0.8415370473
  0.3433590574  0.8105368250  0.0391385637
  0.2191694595  0.9932216195  0.6611827076
  0.6987000462  0.7916816949  0.5579494652
  0.8443577670  0.1922081363  0.0348935724
  0.6281120253  0.0775912694  0.5255420433
  0.2582981088  0.6015106813  0.4538600682
  0.7825883481  0.3349770819  0.6915945997
  0.7538717933  0.4600856860  0.2167736502
  0.0385591978  0.2579211947  0.8512665977
  0.3764786014  0.2865759227  0.9489921524
  0.6607476180  0.5443573170  0.8670620928
  0.9611336801  0.6378948432  0.3586471304
  0.9726697454  0.9191018681  0.1916026419
  0.1139355166  0.8079597408  0.8501960301
  0.2718928469  0.2360493928  0.4722628773
  0.9734952077  0.6288105150  0.6734307978
  0.9916287627  0.9842473223  0.4813690487
  0.1488595182  0.3605847768  0.1514784120
  0.4122880836  0.9462203305  0.4170965474
  0.7000414467  0.7138739976  0.1529318435
  0.0782982856  0.6966499068  0.1084352076
  0.1542212049  0.1303777842  0.2727841513
  0.5612204854  0.2809113319  0.3328291406
  0.8671416824  0.2478590649  0.4077473916
  0.1297164389  0.4318577446  0.6732530253
  0.5611079730  0.4646074684  0.6014454809
