Li15Na15(BO3)10 1000C
1.0
  9.6066515800  0.0000000000  0.0000000000
  0.0000000000  9.6066515800  0.0000000000
  0.0000000000  0.0000000000  9.6066515800
  B  O  Na  Li
  10  30  15  15
Direct
  0.6663694984  0.4173356167  0.4478722937
  0.9473763248  0.3298978374  0.2790852321
  0.8261006670  0.1198045240  0.9842708227
  0.2904366830  0.3347603378  0.0124128351
  0.4455172319  0.8026446879  0.1628629941
  0.0042786641  0.7929743680  0.2294012226
  0.7293890852  0.9333402414  0.5686956976
  0.2654418508  0.1852472196  0.6262873436
  0.2291656782  0.7167016264  0.6225732244
  0.8229459095  0.5975382979  0.8327419154
  0.9039779102  0.2038725435  0.3398078172
  0.8735563421  0.4079222469  0.1767281803
  0.5926859405  0.3063255108  0.3961064071
  0.0973469832  0.3629199745  0.2975953218
  0.2136958887  0.2069644060  0.0480189317
  0.2099280972  0.4269049272  0.9555637799
  0.7491487315  0.0382467694  0.0977664554
  0.7684855485  0.2464935110  0.9292297909
  0.9311764736  0.0200185696  0.9127853067
  0.4259804253  0.3476783840  0.0708541882
  0.3808822892  0.1863575661  0.7100260056
  0.6027740253  0.8927905805  0.6261104885
  0.2822977610  0.1352654401  0.4869473617
  0.1258973012  0.2052808657  0.6899319855
  0.7344864557  0.9199029392  0.4212844566
  0.7982352398  0.0253432777  0.6500668422
  0.4482842857  0.8369994384  0.0085380149
  0.5129425343  0.6784331921  0.1827838467
  0.3975610845  0.8857713060  0.2829792058
  0.0410865905  0.8870425425  0.3187130254
  0.7190595469  0.5517178401  0.3928276048
  0.7439145882  0.3848858125  0.5834101564
  0.1019262382  0.7141557072  0.1356309669
  0.8547934216  0.7861297626  0.2047623601
  0.8584865380  0.7062067563  0.7468342146
  0.9416284119  0.5035583994  0.8752450705
  0.6891091833  0.5611261856  0.8794378644
  0.2096421373  0.8610624075  0.6514380710
  0.1634137316  0.6402861937  0.5173823268
  0.3575320474  0.6707611475  0.6764394676
  0.3481093173  0.2726294529  0.3242325823
  0.2452339351  0.9652609753  0.1496216984
  0.9618275739  0.8522982980  0.5114060175
  0.4651142734  0.6110012447  0.9240384998
  0.7221757586  0.8904490404  0.8282089536
  0.1308745966  0.7887472167  0.8417090939
  0.4162189477  0.9085034403  0.7188921283
  0.4799750014  0.0127158378  0.4360389265
  0.5042986317  0.0886528332  0.9985325607
  0.5596354568  0.2812360121  0.7512982502
  0.2370953575  0.6108216617  0.3459507155
  0.9655407287  0.5100654368  0.5440088682
  0.5298637003  0.7163834919  0.4167460193
  0.2091153702  0.4431278073  0.7536718117
  0.6966524612  0.2552333038  0.1804956180
  0.8009703820  0.4902570693  0.0129667387
  0.7125073691  0.8900527709  0.2396090497
  0.0712710318  0.5565448881  0.0289766167
  0.1971721659  0.9295601360  0.4465365386
  0.8406454222  0.3635676562  0.7598690761
  0.8905169062  0.8700568969  0.0289646973
  0.8040779397  0.6456205630  0.2595551323
  0.0480270093  0.3460372733  0.0691911067
  0.7522847475  0.1890841684  0.4906339032
  0.6922563786  0.6014627728  0.6614320556
  0.5282272207  0.4921257504  0.2193648823
  0.1841160111  0.1622429358  0.8648772511
  0.8915704233  0.0132215429  0.3365465575
  0.1126441590  0.2271233566  0.4178230706
  0.9315589616  0.1208119646  0.7345612346
