Li15Na15(BO3)10 600C
1.0
  9.3134382100  0.0000000000  0.0000000000
  0.0000000000  9.3134382100  0.0000000000
  0.0000000000  0.0000000000  9.3134382100
  B  O  Na  Li
  10  30  15  15
Direct
  0.7827554753  0.2796635170  0.5489540925
  0.1119035314  0.2992894188  0.3105256224
  0.7989768380  0.0488402315  0.8952824433
  0.4582775742  0.3352406195  0.1079615121
  0.5561681141  0.8135653696  0.2534954507
  0.0458777345  0.8340717540  0.2002783990
  0.9336067453  0.8226608709  0.5906070868
  0.3187840878  0.1909841651  0.7179765058
  0.3570902514  0.6853717178  0.7047159124
  0.8437968468  0.5460988738  0.9895751998
  0.1408558503  0.4347986458  0.3425125893
  0.1396836136  0.1838715792  0.4041104876
  0.7301052582  0.3999151903  0.4843939464
  0.0388955249  0.2701946076  0.1761196434
  0.5147165071  0.3657760069  0.2442885689
  0.4352528867  0.1973548928  0.0618627199
  0.6820461657  0.0141673328  0.8096888135
  0.7824266984  0.1522728578  0.0209002180
  0.9524923666  0.0016296177  0.8774421908
  0.4182754977  0.4718655408  0.0402008112
  0.3131436043  0.0387560912  0.7038590850
  0.9689742206  0.6820698827  0.6056088843
  0.4350938152  0.2728924009  0.7003521415
  0.1791838559  0.2515566818  0.7374170268
  0.0309114352  0.9263063736  0.5574145595
  0.7837375118  0.8541400375  0.5817512920
  0.6245574537  0.6842551135  0.3121823967
  0.5165451695  0.9102538945  0.3572911716
  0.5247663751  0.8309555558  0.1025525423
  0.0599789123  0.6955633880  0.2095243899
  0.7492929581  0.1557284008  0.4601662854
  0.8391043243  0.2746646959  0.6839952385
  0.1380822675  0.9350021509  0.1493529308
  0.8968917095  0.9046741271  0.2275481399
  0.7607049791  0.6390822169  0.9197677380
  0.9751612619  0.4980915196  0.9278213126
  0.7970023391  0.4842213427  0.1186480222
  0.3289847631  0.5966230925  0.5807097528
  0.2475435978  0.7267745065  0.8145665975
  0.4888552593  0.7588407503  0.7403497499
  0.3007195321  0.0417385037  0.3114441823
  0.2657057849  0.7715175446  0.0441768777
  0.6334007039  0.2847018980  0.8580330732
  0.1344223798  0.6713883231  0.4474187080
  0.1831137068  0.4063368641  0.5787314424
  0.0232226855  0.7473894828  0.8493284573
  0.8286249863  0.5680498294  0.3989269978
  0.5130473833  0.4156672850  0.4673349239
  0.5997476686  0.0699814427  0.1697782685
  0.8371764138  0.5215668543  0.7117496841
  0.2118948211  0.1146724842  0.0215066749
  0.5279604270  0.0423522798  0.5778853686
  0.2774331836  0.4381027976  0.8447305979
  0.5369264139  0.7342240681  0.5370354524
  0.5322307910  0.6681878990  0.9405948921
  0.7825011876  0.7324302042  0.1465073917
  0.7044582007  0.3094151261  0.3237804937
  0.6127893809  0.5133492837  0.1737511338
  0.1134460911  0.0876097066  0.5762253069
  0.8140070546  0.0562800428  0.6093268433
  0.0022957372  0.0441321963  0.3636008633
  0.0362229055  0.5216753076  0.1562973963
  0.4831609870  0.9376387248  0.8407515988
  0.8947993784  0.3250688980  0.0808298851
  0.9936590723  0.1999636750  0.8003468330
  0.7331803083  0.8889478580  0.4001922759
  0.2991245782  0.4444726509  0.1990365452
  0.9612423063  0.0562340425  0.0877500264
  0.1923064089  0.9011296346  0.7333351476
  0.7137423502  0.8321189679  0.7769142638
