          82
Equilibrated structure from restart (step 23500), cell=9.8979 Ang
  B    -0.1463854525    1.6738559592    5.6079272153
  O    -0.9529611088    0.8279175125    6.2900271521
  O    -0.3052705138    2.4498586225    4.3522420734
  O     1.0211995347    1.9907097301    6.3999992144
  B     6.0607303978   -0.1066266445    3.4544983218
  O     7.3809914855    0.0597477274    3.2936170593
  O     5.2227137132   -0.8857144929    2.6049899212
  O     5.4766168822    0.6368383272    4.4447223048
  B     1.9602719896   -1.8803650660    5.3051193745
  O     1.8019404687   -3.3550843701    4.9873835603
  O     1.5061817231   -1.4624956344    6.4973610118
  O     2.5904012176   -0.8384651697    4.5178579306
  B     1.8387907654    1.5478198295   11.6070208692
  O     3.0064892505    1.6006712012   12.2891951867
  O     1.0716535452    2.6299250377   11.3049865908
  O     1.6063897190    0.3228398402   10.9974655672
  B     5.8517459974    6.2831177615    9.6487439533
  O     6.7777139344    6.8811056745   10.6338554866
  O     4.6364810735    6.8635679624    9.3483384843
  O     6.1897633616    4.9797546052    9.3176653800
  B     0.8616556297    5.2830754057    9.7202741796
  O     0.7176896950    4.0798338521    8.7819254236
  O    -0.2015891552    6.0164749197   10.0505514056
  O     2.1491438365    5.4392744450   10.0770150565
  B     0.6543320847    0.2014046594    0.0977073901
  O     1.0532727822    0.8453537149   -1.0353097445
  O    -0.5280532121   -0.5170956436    0.2323608660
  B     2.5593520645   -3.5573117874   11.0994317276
  O     3.6057657461   -3.8151275223   11.8469320791
  O     2.1540759262   -2.2527275826   10.8643556767
  B    -0.5018409895    3.9052343264    8.1917358176
  O    -0.7836119211    4.7468562383    7.0686746938
  O    -1.5248293095    3.2252664595    8.9012856469
  B     0.8886837202    6.4440913023   13.6860429057
  O     0.5195473579    5.1827140190   13.4229728093
  O     0.3013514644    7.6467900871   13.2179138781
  C     4.4043622880    3.7756667300    6.4435981716
  O     5.6558555437    3.3684828719    6.6254894979
  O     3.5705958353    4.1917838263    7.2955744053
  O     3.9571034197    3.6771281009    5.1525562838
  C     6.8976694267    3.6105987356   12.1213196105
  O     6.9842722111    4.0157433905   13.3365440665
  O     7.8600377771    3.6033980655   11.2348038082
  O     5.7856728055    3.1292790003   11.7516484415
  C     6.5667739114   -2.7963831735    5.9449873879
  O     7.4170928699   -2.2742892096    6.8271643208
  O     5.2955095276   -3.0859421935    6.2572213502
  O     6.9545078107   -3.0185868066    4.8020046879
  C     5.2379699002    0.6804917137    8.7754808893
  O     4.7037374535    1.7069652078    9.4528542217
  O     4.8584623558    0.1880397081    7.6568479836
  O     6.2528408151    0.0753568457    9.3257869958
  Na    7.3827237501   -1.1060477012   10.8574153914
  Na   -1.8476389625   -3.5396319735   12.2362556900
  Na   -0.6863747855    1.0884267321    2.4673190680
  Na   -0.3442401104   -3.0910805986    7.8772919220
  Na    4.2104926851    4.1572322943   10.0989946074
  Na    2.4496118809    3.8719429606   12.9969718835
  Na    4.4999378854   -3.2691206131    3.9456415200
  Na    4.6369920005   -0.7989089843    5.8692529153
  Na    2.8066513370   -7.9532740462    8.0681308787
  Na   -1.6451619995    1.0570509944    8.3587059713
  Na   -1.0353690454   -1.1566649579    5.0435183259
  Na    2.7477289217    1.7566699259    4.7584962821
  Na    1.0306538031    4.4661426334    5.8741703677
  Na    5.2624606548    1.0980913036   11.7208878409
  Na    2.7790095123   -1.3659683554    8.7873238249
  Li    4.1950382712   -3.8365652771    7.6078252135
  Li   -2.8380564774    1.7310604886    5.7251987661
  Li   -2.8533123333    4.7913872881    7.2668422336
  Li   -1.4982165460   -5.8169655805    4.6137326979
  Li    0.1114675934   -2.3437253241   11.2421877669
  Li    1.8980781315   -1.2184440657    2.5871493036
  Li   -1.7586779205    5.0183760715   10.0146120421
  Li    0.1660700366    2.4467145619    9.7421071523
  Li   -3.1314133033    2.9642254864    9.7104678500
  Li    0.8746672561    0.3544137532    7.0323188335
  Li    4.6893890855    7.6457806205   11.3056445531
  Li    5.4362752104    3.3928849877    4.0126744249
  Li    3.7002195690   -0.0475968334    3.2487040589
  Li   -0.1911639377   -6.3529922169    2.8623770666
  Li   -3.8395582582    8.1758307643    8.3638816212
