Li15Na15(BO3)10 900C
1.0
  9.6614296700  0.0000000000  0.0000000000
  0.0000000000  9.6614296700  0.0000000000
  0.0000000000  0.0000000000  9.6614296700
  B  O  Na  Li
  10  30  15  15
Direct
  0.8163847187  0.3805102197  0.4147284175
  0.3211455536  0.2719793206  0.1360015864
  0.9109455241  0.0299299554  0.9973751659
  0.6757881232  0.3159878110  0.8653449127
  0.5282974501  0.7534267085  0.0218427874
  0.1511164494  0.7709636242  0.2271489282
  0.7038365231  0.8606794099  0.5603912071
  0.2165528650  0.0617686723  0.6499026669
  0.2979453146  0.5532522009  0.5719784944
  0.0048974729  0.4818261678  0.8670089670
  0.4321552100  0.3441809850  0.0652638196
  0.2615970827  0.3378781159  0.2541450872
  0.8222907836  0.4856477008  0.5081339484
  0.2801298129  0.1371498131  0.1092692082
  0.7111143117  0.3709365397  0.0028968985
  0.6428099570  0.1818621267  0.8300719601
  0.8491666999  0.9097523678  0.9559317112
  0.9112215683  0.0637867878  0.1487910882
  0.0033435251  0.1236623608  0.9353382404
  0.6350420361  0.4139331718  0.7651006990
  0.1519196983  0.9513025221  0.7008700230
  0.6362062335  0.8079685983  0.6771768082
  0.3454031549  0.1186059218  0.6646219964
  0.1273096051  0.1433880956  0.5333907402
  0.8514640387  0.8680842701  0.5655714944
  0.6241211355  0.8912338367  0.4377095759
  0.5534932332  0.7243196057  0.1703338056
  0.5265452832  0.8935229111  0.9864510801
  0.4738343926  0.6468240474  0.9384033793
  0.1632867567  0.8601063638  0.3559241274
  0.9237141852  0.3577435859  0.3154614975
  0.6977946611  0.2866479300  0.3961296791
  0.1883430359  0.8226916479  0.1048206452
  0.1092417969  0.6372220926  0.2278506787
  0.9858019629  0.6160121034  0.8280583196
  0.9557360175  0.3944012081  0.7577267501
  0.1116688655  0.4257222332  0.9867010584
  0.1600905351  0.5304372865  0.5472410691
  0.3575949060  0.6594312536  0.6507877917
  0.4014290605  0.4477525669  0.5451643604
  0.5567501651  0.1688733964  0.0374371444
  0.0014638594  0.7776625739  0.9605178183
  0.3824356663  0.9214384256  0.1794587134
  0.0735504523  0.2511925082  0.7523560523
  0.7446531409  0.8775472268  0.1804863358
  0.3042585509  0.5412088294  0.0127732227
  0.9328144493  0.6681671755  0.4285565929
  0.4426681569  0.4352019948  0.3080069605
  0.7812250520  0.0744888272  0.4290105531
  0.1254858001  0.7273405194  0.6644549319
  0.5803005867  0.2586802625  0.6247939474
  0.6026413244  0.5182404665  0.5336102357
  0.3318959504  0.9661422277  0.8929266328
  0.4028210593  0.8690919666  0.4646169901
  0.7872959543  0.5867255054  0.7592618866
  0.9964914478  0.4616068573  0.1531476205
  0.7625284729  0.2759114217  0.1989027942
  0.8146588595  0.8899303329  0.7688081210
  0.2975066027  0.2705144042  0.5599492069
  0.1030249797  0.9710673362  0.1610177229
  0.0373079944  0.9649398139  0.5123227885
  0.1773089263  0.4987166261  0.3293443225
  0.4931695771  0.7194773458  0.7567610940
  0.8709304706  0.2918280173  0.9442786513
  0.1106234668  0.2110042099  0.0645680231
  0.6100661829  0.0069242368  0.8304555947
  0.5848815708  0.4894745058  0.0320664600
  0.0848902595  0.2238916770  0.3840573509
  0.9915265044  0.4694236789  0.5863000035
  0.4397813591  0.4567369874  0.7644572557
