          70
Equilibrated structure from restart (step 10000), cell=9.2783 Ang
  B   6.3902458148  3.3875417011 -4.9941965208
  O   5.3032213683  2.9274886218 -4.3094367984
  O   7.2243426950  2.4841981594 -5.7705149729
  O   6.6575880712  4.7586363375 -5.0955859456
  B  10.0905074102  2.4932632292  2.2171701211
  O   9.8684375220  2.8940575566  0.9699165329
  O   9.7945287673  1.1835428352  2.5578450714
  O  10.7353316054  3.2545931193  3.2461017530
  B   4.0980052697  2.8384033790  0.9762429620
  O   4.4608262120  1.7326046067  1.7943200816
  O   4.1382614152  4.1524882044  1.4537928437
  O   3.5640780726  2.4642314342 -0.3100721038
  B   8.0782342035  9.0569414255  0.1713521510
  O   9.0742074153  9.7512391858 -0.4724981799
  O   7.0538152182  9.7203144909  0.9279282729
  O   8.3252664503  7.6140046362  0.2217767080
  B   2.1426094669  0.5425080989 -2.8980129729
  O   0.8273198240  0.9213426407 -3.0907980355
  O   2.9974527060  0.5864827648 -4.1227341782
  O   2.5663713195  0.2255043768 -1.6869696944
  B   5.9988635021  8.5015679074 -2.8489347498
  O   5.9906265118  7.9775307422 -4.1952785807
  O   5.3641570973  7.6494192792 -1.8121151365
  O   6.9927714386  9.4893088519 -2.7169970231
  B   3.7150891900  7.1658541542  1.6054673253
  O   3.6772227579  7.2840185230  3.0396402839
  O   5.0940752289  6.8212044300  1.1082239006
  O   2.6173756024  7.5745298534  0.9640741852
  B   8.5489101706  6.8510842855  3.5524273293
  O   9.0950797047  6.8524985767  4.8128772362
  O   7.9221107871  7.9978860294  3.2013289082
  O   8.7907179544  5.8172462208  2.6839679791
  B   7.2911756308  4.1419793329 -0.8881051214
  O   8.0841320172  3.1286080117 -1.4714282707
  O   6.7074826005  5.3346550882 -1.4024722007
  O   7.1730096358  3.9924022069  0.5067097299
  B  11.2998198293  5.1291432349 -2.6995799157
  O  11.0068448512  4.1805063304 -3.5497248582
  O  10.7885532709  5.4266718567 -1.3076354922
  O  12.4498159588  5.9906528062 -3.0788790451
  Li  6.2815296082  2.2806108571  1.3685586597
  Li  2.4742994099  7.2550250010  8.4099880119
  Li 10.2688823563  4.8944907276  4.0729678014
  Li  7.8260616067  8.2219665897 -4.2779168398
  Li  6.5869234255  1.5874840651 -3.9711765780
  Li 10.2574718185  2.2510071505 -4.4386369627
  Li  8.1061469588  4.1761573761  2.7594201366
  Li  5.6220097283  4.9532076987  1.0781547153
  Li  7.2543399896  7.6196352646  1.6317606449
  Li  7.8851797220  9.9250736892 -6.5076156515
  Li  2.8575118121  1.6325711119  2.9022558322
  Li  8.3146646605  2.2626829920  0.3357609540
  Li 13.2257401450  7.8371505186  5.9315448074
  Li  8.5560750886  1.0515978952 -2.2413928563
  Li  6.3293912525 -2.3728153540 -0.4882969296
  Na  3.4140557018  4.0068540219 -4.9980240577
  Na  0.7772938822  8.1400059462 10.9043381078
  Na 13.8196376207  5.2529091313 -1.0882480304
  Na  5.6437898855  5.9162062762  5.8132959689
  Na 10.2121589893  3.2211020678 -1.2078491465
  Na  8.8138934836  5.2824838391  0.5384765147
  Na  9.3487112689 -1.5820276333 -1.9613153114
  Na  5.8421129945  6.3257708528  3.2694301317
  Na  4.7754371218  0.1044129509 -0.5673779526
  Na  1.9506255162 -1.3757682598  4.0650030567
  Na  3.9366546863  2.0656306705 -2.6979323470
  Na  8.6613309132  4.6187290734  6.0448187390
  Na 11.3035025574  5.0576087306  0.9764900236
  Na  5.1554089834 -0.1033373383 -6.2834346906
  Na  1.8174427928  0.9940974407  0.1140049483
