B10 O38 C4 Na15 Li15
1.0
  1.0020032800e+01  0.0000000000e+00  0.0000000000e+00
  0.0000000000e+00  1.0020032800e+01  0.0000000000e+00
  0.0000000000e+00  0.0000000000e+00  1.0020032800e+01
B O C Na Li
10 38 4 15 15
Cartesian
     -3.9398358459      1.6445554245      5.2810601648
      3.1487826735     -1.0647130561      1.9161574680
     -1.0033311422     -1.3379028084      5.2713054955
     -1.2719919336      1.8979817504     11.4034613919
      1.3762274257      4.8165295675      7.8336936615
     -2.7528297612      5.9046907544     10.8422895846
     -2.7530601534      0.6161260742     -0.4301052032
     -0.4526990650     -3.6639488600     11.3992983493
     -4.0218607637      5.5077572213      8.5619593254
     -1.7003136413      6.4665735777     14.9868293516
     -4.0303843472      1.0522599296      4.0453651046
     -5.0372412817      2.1281919602      5.9996501420
     -2.6453455788      1.8447643476      5.7239866654
      2.1674840355     -0.0225158234      2.2211012035
      2.8148523598     -2.4329001822      1.4703363106
      4.4804410393     -0.6422980582      1.7642564929
     -0.4769569775     -2.6521296707      4.7829411485
     -0.8085423069     -1.2720359772      6.6380897924
     -1.3457684406     -0.4609312609      4.2531746620
     -0.1601072810      2.1957227268     10.5136603072
     -1.4967651851      2.5001963622     12.5360339585
     -2.4675617013      1.3053029152     10.9656021122
      1.6095037339      6.2044606914      8.4153014725
     -0.0278338022      4.6048085685      7.8846258431
      2.5221684644      4.0807002625      7.4265980544
     -3.6765072885      5.4416982770      9.9138046112
     -3.1043207750      6.9109282330     11.7847471263
     -1.4754562277      5.5305878172     10.9356022235
     -3.2337520503      1.5126699478     -1.2839320737
     -2.5022570414     -0.7578717681     -0.4084783623
      0.3958057008     -4.3409354996     12.1721266486
     -0.4115387081     -2.2555181323     10.9581130641
     -3.5608846427      4.6555359645      7.7356449385
     -4.8881605016      6.5668654540      8.3131389305
     -1.5355929088      5.3147980736     14.4985052095
     -2.7807472314      7.0260941642     15.7566819569
     -0.0473676472      2.5698818836      5.3248892167
      2.1227095650      1.9681991951      4.8352287488
      1.3986462399      4.0690774071      4.4366718603
      3.5925192383      3.9625138330     10.6776288954
      5.2926977314      2.9594266187     11.8710088520
      4.1846043097      4.8753608651     12.6474993284
      2.3236286253     -3.0801438283      5.6948732907
      4.3934775195     -3.9465853108      5.3053009431
      3.9648193119     -1.7247539779      5.4439183945
      2.7182464399      0.5866376687      7.7573132549
      1.6034801853     -1.3888506612      8.6313446662
      3.7893455786     -1.3640244411      8.0178244188
      1.1473934530      2.8555031835      4.8773059824
      4.3920874173      3.9719575963     11.7721940656
      3.5670944302     -2.9063185838      5.2945424273
      2.7218244439     -0.8009950854      8.1451373095
      4.7892720800     -2.6783352857     10.5007010244
     -3.7454296398     -4.5360667380     13.8659653593
      0.3073028153      1.0023500120      3.0017731736
     -3.8280788157     -1.5069321678      4.3641101758
      1.1616556774      4.4201041079     10.6099142148
     -1.8103584529      3.7287684227     16.1113633578
      3.7238541708     -6.2496118584      5.2184146677
      3.3867537842      0.2616337888      4.2384675637
     -2.1790407352     -6.1730845235      9.2095016121
     -3.7396856349     -1.4189610616      7.6023571423
      0.3845029077     -1.7636860997      3.0006261272
      1.3398359569      2.0888600208      8.3639936201
     -0.4248670018      7.3152415154      8.2366048192
      4.4710882771      1.2775828578      9.7573975214
     -0.2882574476     -0.1007783473      9.2545111807
      0.9068375831     -4.2043970986      5.1902406811
     -2.5567241719      1.5647292936      3.7008432901
     -3.8911362079      2.7000677532      7.4493701860
     -4.1770772874     -3.7117367161      6.3694448138
     -2.0720934158     -1.4755972963     11.3336984271
     -1.1901233656      0.7022918080      5.8259933333
     -6.4013372280      4.5460666163      8.7908163193
     -3.0477291581      2.8059339745     11.8143211465
     -6.5119030730      1.6640568340      6.5854435487
      1.3637459169     -1.3209164288      6.2478781739
      1.6316089827      7.4133793062     10.0359531976
      5.3296151758      1.0018394404      2.5827284812
      2.5703122438     -4.1035099516      2.6210813568
     -0.2311941172     -5.7639450626      3.0416837471
     -6.5815002560      6.9840539441      7.6961022390
