B10O38C4Na15Li15 - post-CO2 (from remix traj frame 500000)

82 atoms
5 atom types

-0.0712546532 10.0031942532 xlo xhi
-0.0712546532 10.0031942532 ylo yhi
-0.0712546532 10.0031942532 zlo zhi
0.0 0.0 0.0 xy xz yz

Masses

1 10.810
2 16.000
3 12.011
4 22.990
5 6.941

Atoms

1 1 4.8156100000 5.7182000000 6.1487700000
2 1 7.5926000000 6.3328200000 2.5005100000
3 1 3.0545200000 7.3401300000 2.0282800000
4 1 7.5919700000 3.0492000000 8.5292400000
5 1 9.4846300000 7.4985000000 7.0851700000
6 1 0.8854000000 4.0654800000 4.7989900000
7 1 8.6768200000 1.1659300000 0.1854870000
8 1 9.4525600000 2.4943700000 5.3962100000
9 1 6.8692200000 6.7650700000 0.1698120000
10 1 1.9972300000 5.6689300000 0.3316790000
11 2 4.1784800000 6.8643400000 5.7968400000
12 2 4.0761200000 4.5048900000 5.8720200000
13 2 6.0299700000 5.5892700000 6.6690800000
14 2 8.6582900000 6.0351500000 3.3949000000
15 2 6.3743000000 6.5035400000 3.0792500000
16 2 7.9337400000 6.7764500000 1.0900900000
17 2 0.8811830000 4.8430300000 0.6067610000
18 2 2.2044600000 6.9095400000 0.8099280000
19 2 3.8387600000 8.4612600000 2.1446900000
20 2 8.5085500000 4.1139700000 8.7365600000
21 2 6.2071900000 3.3794400000 8.3489300000
22 2 8.3671900000 9.9123500000 0.2698250000
23 2 -0.0282053000 6.4178500000 7.7670900000
24 2 9.5059400000 8.9174300000 7.2850600000
25 2 8.4952400000 7.1646000000 6.1360000000
26 2 0.9888510000 5.4326200000 5.2253600000
27 2 0.5270420000 3.6046400000 3.6111700000
28 2 0.7196660000 3.1061400000 5.7652100000
29 2 7.9370300000 1.8200400000 9.1996800000
30 2 9.5326500000 1.8426100000 0.9658980000
31 2 8.1800300000 3.2670500000 5.1191000000
32 2 9.4355700000 1.2252200000 5.1749400000
33 2 6.1206300000 5.6199700000 0.0655767000
34 2 6.7317000000 7.8641100000 9.4549300000
35 2 2.8335700000 5.2691500000 9.3550000000
36 2 3.1068600000 6.4336100000 3.0080500000
37 2 2.8348000000 2.6089900000 8.2421300000
38 2 2.3761000000 0.6554950000 7.3154900000
39 2 1.9616600000 0.9245930000 9.4486900000
40 2 2.6304800000 0.2883380000 4.0518700000
41 2 1.1889300000 8.6859800000 4.7188500000
42 2 0.8307800000 9.7991700000 2.7299300000
43 2 5.9708300000 9.7957700000 4.8269000000
44 2 5.1126300000 1.7449300000 5.7914000000
45 2 5.5627900000 9.9690900000 7.0178900000
46 2 4.6115100000 3.2171500000 1.0133200000
47 2 5.2751600000 1.4569800000 2.2785300000
48 2 6.8202200000 3.0466900000 1.6774900000
49 3 2.4243800000 1.4040800000 8.3634300000
50 3 1.5599700000 9.6303500000 3.7744200000
51 3 5.6320900000 0.3725780000 5.8438300000
52 3 5.5203500000 2.6437900000 1.7263300000
53 4 4.9231600000 5.5314000000 1.8595000000
54 4 6.5951900000 8.0567600000 7.0097800000
55 4 2.7885300000 8.7587200000 5.9387000000
56 4 2.2424400000 2.9213300000 0.9550610000
57 4 3.0503200000 2.1089900000 5.6943000000
58 4 6.5186200000 9.3078800000 1.5586700000
59 4 0.6467430000 9.3550600000 0.4003500000
60 4 8.9226000000 9.0965400000 5.0579000000
61 4 6.7402200000 2.0079400000 4.0375600000
62 4 0.4139600000 2.8432600000 8.7712400000
63 4 5.2904200000 1.2969100000 8.7649300000
64 4 4.2098200000 7.3704100000 9.1045100000
65 4 1.8474900000 5.1767900000 7.2502800000
66 4 8.3860200000 4.9902100000 6.6114300000
67 4 0.5967500000 5.6786600000 2.6981100000
68 5 6.0988200000 3.9158200000 0.0716762000
69 5 7.4976000000 6.5297700000 4.8742000000
70 5 0.2709770000 0.1605540000 6.5546200000
71 5 8.2920900000 8.8705300000 8.9922000000
72 5 8.8959100000 4.2299400000 3.5755700000
73 5 0.0424876000 6.9936700000 4.9673900000
74 5 9.8359000000 5.5646400000 9.6852300000
75 5 8.5668500000 3.4907500000 0.6443960000
76 5 3.8795400000 4.0130500000 8.2506900000
77 5 6.4548000000 5.1795700000 8.2268100000
78 5 0.0249645000 1.4234000000 2.7748100000
79 5 5.8003600000 3.7596500000 6.3549800000
80 5 4.7288600000 7.4040400000 3.8625300000
81 5 4.2676100000 0.0944701000 3.1680500000
82 5 2.8542900000 5.7625600000 4.7419800000
