B10 O38 C4 Na15 Li15
1.0
  1.0100445200e+01  0.0000000000e+00  0.0000000000e+00
  0.0000000000e+00  1.0100445200e+01  0.0000000000e+00
  0.0000000000e+00  0.0000000000e+00  1.0100445200e+01
B O C Na Li
10 38 4 15 15
Cartesian
     -1.6677786142      1.6209668979      6.1219031038
      5.0966720884     -0.0425481786      2.2646879257
      1.0783558792     -1.2461926847      4.8857764313
      1.5413875603      2.8798691785     10.8947394079
      4.4265595937      7.5785999133      8.8049340793
     -0.3817589293      7.6355699233      9.4189122023
     -0.7088631366      1.7923119297      1.3153307518
      1.7823497906     -2.2630346526     10.9977607929
     -0.4977960518      5.6816483669      7.7588214738
     -0.3466687754      7.2473172081     13.6127794028
     -0.5891036980      1.6685793440      6.9983481115
     -2.4732118880      2.5550006736      5.3596117357
     -2.2846199999      0.3456984862      5.9717507295
      3.9769418818      0.4628122408      1.6468615495
      5.4917959819     -1.4865198082      2.1225275075
      5.9222258832      0.7006541974      2.9641714864
      0.8146818325     -2.0902285662      3.7580030967
      1.5957718596     -1.7893596095      6.0226468312
      0.7233988592      0.1508844733      4.5758564817
      2.4349114908      3.0291659802     10.0100684653
      1.6091965609      3.5003964573     12.1132684291
      0.6971333446      1.6769548094     10.8796007651
      4.3127741124      8.9100755526      8.2663794693
      3.4303836592      6.6561327997      8.4197008172
      5.4277886283      6.8580817984      9.5303895178
     -0.0136718281      7.1477362210      8.0901522174
     -1.2612524048      8.6312345730      9.3765524638
      0.2918057175      7.1705804895     10.5825618560
     -1.5414534591      2.7138574341      1.7441841454
     -1.1349291484      0.5009082525      1.2720620125
      2.6981838092     -3.1983110599     11.6200583175
      1.9581407737     -1.0012214186     10.6439616550
     -0.3402204621      5.4574115076      6.3937181454
     -1.0455427252      5.1088344495      8.7883041038
      0.0082215729      5.9932351080     13.4709564008
     -1.5745958918      7.8943581615     13.5575793228
      2.5141446862      1.2790871975      7.0221240517
      4.2503420505      1.3502869735      5.4284660805
      2.5161670967      2.8655055481      5.4485706485
      6.5940422657      5.3010784334     11.4889509967
      5.0640358205      5.6570766780     13.1734431732
      6.1012607811      3.7533098522     13.3774150654
      6.7272315697     -3.0134736186      6.9686231619
      5.1928918770     -4.3652591957      5.8552602810
      5.4070239761     -2.1749495263      5.5028466219
      4.5917836064      3.5311394125      7.5937340362
      5.8938798313      1.8427786223      8.6718537898
      6.5691455318      3.9947361848      8.4530320000
      3.1289423043      1.8069588750      5.8959023434
      5.9228011043      4.8591603264     12.6916673001
      5.8677913486     -3.2318488051      6.0499645204
      5.6997162789      3.0909590256      8.3006791638
      6.8032727680     -1.1461003106     10.6214042591
     -3.4348375973     -1.3875450561     14.1001762423
     -1.2750983543      0.1857842025      3.8616369457
     -1.4359651466     -1.9445875762      6.4487564452
      3.5308722431      5.2272584048     10.1971513313
      0.7936279963      3.2049727207     14.2890523736
      3.5704832021     -2.8656115540      3.3825326461
      1.5834709289      0.3097082880      2.1612711706
      2.2405546895     -6.3830848873      7.9187937920
     -0.1298973733      0.5296341154      9.2627075590
     -3.3552813923     -0.1862414026      8.0485270636
      3.5082175450      1.0369222060      8.9118963323
     -2.0154573173      5.2316966496      4.5226885702
      6.7712842743      3.1681729197     10.5967384084
      3.8655368329      1.7992871114     13.2607875137
      0.8882684652     -3.8276261943      5.1787691820
     -2.4672359989      2.8597003687      3.2295734384
     -5.4005513191      4.0383933838      4.8555295847
     -1.4267481134     -6.6686705511      7.4662406622
     -0.1243201263     -1.1437193368     11.3709412041
      0.9385523751      0.7388265035      6.4603106519
     -3.0203335209      5.7961071482      8.6056881252
     -1.2007031830      4.5918551797     10.7924597869
     -5.2630845793      5.2800937748      7.7384400956
      1.9842921321     -2.4973435300      7.6252203902
      5.4602053055      6.7266354396     11.5769774063
      6.0804105018      1.0713812349      4.7971023584
      3.8110784393     -1.1006193416      0.5212887649
      1.1192449092     -4.5264285895      2.1509179736
     -6.2637462450      8.6273782226      6.4281402965
