B10 O38 C4 Na15 Li15
1.0
  9.9215626500e+00  0.0000000000e+00  0.0000000000e+00
  0.0000000000e+00  9.9215626500e+00  0.0000000000e+00
  0.0000000000e+00  0.0000000000e+00  9.9215626500e+00
B O C Na Li
10 38 4 15 15
Cartesian
     -0.8123430859      0.9724755472      5.2196429031
      5.3621276135     -0.8210438907      2.5084613372
      1.7460720610     -2.5631273025      5.0557229880
      1.0488068901      1.6667533501     10.7228962627
      4.6879939552      6.1820446949      8.2831239606
      0.5711522350      4.7340769840      9.2765871270
     -0.7651628274     -0.3769822905      0.3203867891
      2.2068917438     -3.4370162799     10.3316714499
     -0.5875894948      3.9681336464      7.4660896477
      0.3787113054      6.0744665464     13.5642742223
     -0.5017188011      0.3133849362      4.0231179233
     -1.9065353163      1.8772473154      5.2383318221
      0.0465610193      0.9958955766      6.3371004170
      5.9436023025     -1.9871597503      1.9870785194
      4.0669722523     -0.7119689440      2.2200058055
      5.9784994790      0.1337914241      3.2708244564
      1.6323866179     -3.7439333210      4.4390205317
      1.3472537826     -2.4335518308      6.2687150064
      2.3995280865     -1.4601384579      4.4180053976
      2.2704261308      1.7620031116     10.2357483053
      0.0736369302      2.6167553492     11.0578949175
      0.4262033580      0.2115742592     10.6965386410
      5.7875007014      6.7353692067      8.8935543539
      3.9703612392      7.1073873118      7.5056554907
      4.6620029337      4.7229030706      8.1879152235
      0.6955665589      3.8284175464      8.1590065677
     -0.3719336143      5.5353033815      9.5778962782
      1.8984769924      5.0726079798      9.7099641937
     -1.5313241232      0.4087145925     -0.4215670984
     -0.9978527058     -1.6379219184      0.6013265153
      2.8293882240     -3.5850101154     11.5050906274
      2.0265539983     -2.3917700887      9.5254531342
     -0.4400407130      4.6253708118      6.3024742942
     -1.7131624883      3.4562525168      8.1652650903
      0.0745931636      4.7764857233     13.0958061185
     -0.3542923460      7.1835348298     13.3788959345
      4.2767379832      1.7782272620      5.0920443522
      2.5747878104      2.7187586179      3.9533209062
      3.2286241082      3.7417475067      5.8241624977
      7.1072711833      2.5357448894     12.3626237729
      7.2393622258      4.4042576873     11.1137665928
      5.1700041754      3.4956735278     11.5973770012
      6.9545149750     -2.3468188427      5.6373375469
      6.8876207464     -4.6538039043      5.3517521406
      5.0525625958     -3.2750054398      4.8450730651
      5.2235951635      1.4128625300      8.5236177406
      3.3475453260      0.4164039337      8.1550020537
      5.4456970112     -0.1409920733      6.9674046492
      3.3990210371      2.7791693671      4.9806262266
      6.5303783857      3.4555719648     11.6517889819
      6.3550380167     -3.4177447930      5.3284310839
      4.6053032183      0.5794836049      7.8518485912
      6.5446496420     -0.9106810295      9.8537760656
     -1.7620502204     -3.5217956897     11.3498402621
      0.9157619186     -0.9614230334      2.5951460073
     -0.9630191660     -2.9626199955      6.5235277237
      4.0495533009      2.9927636469      9.6632443913
      2.0489055271      4.1193616037     11.8845840838
      4.8549057552     -4.2627462901      2.8284886128
      4.3619942027     -0.7160432861      5.2506255250
      2.2468770733     -4.8165279021      7.2640689880
     -2.0294270950      0.5502823437      7.2437983622
     -2.0798300734     -1.2173495688      3.3683039535
      0.9355603367      1.4698012028      8.3208875893
      0.7740908477      2.9649317458      4.9118873789
      4.0859804824      1.3137398168     12.5769334173
      2.9481550370     -0.1892044285     10.2059500750
      4.1372532044     -4.3993812624      5.8720314991
     -1.1219126749      1.5933553155      2.3696951198
     -2.2082867085      3.6516287836      6.2586526670
     -1.1582307195     -4.7127413304      4.6015038916
      0.1470475002     -2.4635552691      9.3533080030
      0.8274557549     -0.6048560185      5.4412766296
     -3.0523806129      4.9288766354      9.2712118495
     -1.1998071680      2.3825720897      9.4472241245
     -5.2020629232      3.3356241603      7.0873135556
      2.5222813038     -1.9190322789      7.6212265757
      4.5991886899      7.4827207290     10.6757163797
      6.6589520792      1.4476479997      4.1986626390
      3.0484624626     -2.0541625058      2.8406066170
     -0.6183720358     -5.7682161132      1.5707456159
     -4.1552318491      7.9152734251      7.2204782742
