B10 O38 C4 Na15 Li15
1.0
  9.7999842700e+00  0.0000000000e+00  0.0000000000e+00
  0.0000000000e+00  9.7999842700e+00  0.0000000000e+00
  0.0000000000e+00  0.0000000000e+00  9.7999842700e+00
B O C Na Li
10 38 4 15 15
Cartesian
     -1.8846292578      1.8681094972      4.0908040347
      4.3308705533     -0.1889888869      1.5774702896
      1.1775915866     -1.7477624049      4.2012040701
      0.0684362743      1.9444700142      9.1430159934
      3.5070765447      5.4714338690      7.1885307629
     -0.8619423913      6.5227681072      8.0585609671
     -1.7849600155      0.4561530658     -0.0674853171
      0.9079785398     -3.2825067301     10.0359782220
     -2.2366473601      4.6558252043      7.1747472128
     -0.6435417763      6.4859321510     13.0522727339
     -1.0105774338      1.6901815736      2.9064969536
     -2.9922295408      2.6982827754      4.0067951282
     -1.5722766416      1.1370366791      5.2019643120
      3.8468440006     -1.2242698112      0.7824060948
      3.9381473081      1.1539242196      1.3538316000
      5.2860564593     -0.2410978052      2.5798612607
      0.6373379745     -3.1601770044      3.9893026638
      1.3219447097     -1.1062387122      5.3531300718
      1.6600147129     -1.0732359120      3.0650483952
     -0.0652847003      2.5387963878      7.8664473856
      0.9645306142      2.4528321721     10.0268534750
     -0.4439728036      0.4927330206      9.3444749618
      4.5692787619      6.2729904990      7.4990536690
      2.3746334548      6.1660251879      6.5237372909
      3.4259402075      3.9746991718      7.3639679458
     -2.0997010199      5.8417553166      7.9630788058
     -0.4384411957      7.6441909461      7.4397708910
     -0.2358202311      5.9968888434      9.3336062960
     -2.3369289496      1.6805119032      0.3493607420
     -2.3130441089     -0.7695186633     -0.0993666212
      1.9449040914     -4.0794246428     10.5526972768
      1.0176524398     -1.7590983104      9.9978525701
     -1.5629992137      4.3770658520      5.9696692959
     -2.9617789761      3.6338405158      7.6977701307
     -0.9407300297      5.0821252536     12.6607280410
     -1.3515956250      7.6040128347     12.6621103564
      1.5189277701      1.8774868595      5.1085400489
      3.7249521478      2.0275071300      4.8655561294
      2.3689495003      3.3166599463      3.4845155401
      7.3960211380      4.2176449275     10.8127758535
      5.8633559836      5.9064781919     10.6651509543
      5.0514833511      3.9027251966     10.5787312625
      6.0297679166     -2.1934967243      5.1916519909
      5.4854915223     -4.0294702015      3.8461127118
      4.0067299093     -2.4100336478      4.4338480706
      3.4356343776      1.2090616782      8.2651808399
      2.6349015272     -0.8602291020      7.7724672881
      4.5374906007     -0.3684644523      6.9848281015
      2.5210718200      2.3614258215      4.3844900602
      6.0765468442      4.6628636392     10.6457915663
      5.2328893196     -2.8635106717      4.4477435598
      3.5903898127      0.0419024254      7.6813376671
      5.7327951789     -2.0643532134      8.7398626817
     -3.1978290150     -1.5886119053     11.7028754570
     -0.3593154262     -0.3511774635      1.8847730799
     -1.5833175217     -1.6846953658      5.3927130933
      2.9412592790      3.1203176142     10.9664785773
      0.6445808771      3.7986322771     11.6598656718
      3.9904976102     -4.0495705134      2.2919574080
      3.1489365903     -0.3193408152      4.4897899863
      1.5022476672     -5.6502618006      8.4503788199
     -4.3812974664      3.9692528729      5.6323931611
     -3.6684327360      0.2257355704      4.8775823528
      0.1296256014      0.3263752460      6.9119122386
      0.4787840856      4.0257520115      5.3583516923
      5.5171159065      1.8109131458      8.8675061263
      2.1489396200      0.4089070189      9.7924383595
      2.3724237714     -3.5298408858      4.8609534905
     -2.4531633072      2.5519030296      1.9323630917
     -4.5020326494      4.6779368478      8.5437714589
     -2.4831339383     -5.3526611678      3.5921373021
     -0.4979755731     -1.3267379891      9.2382006420
      0.3349218250      0.9273712894      3.9562267612
     -1.8374564974      3.2847654471      9.2108633099
     -1.7315949370      2.6359253408      6.4407401754
     -6.1822299287      2.4283517825      6.7825524669
      1.2455417225     -2.2573893064      6.8201152689
      2.9205153835      7.6116933328      9.2205645990
      4.8335601053      1.5995228367      3.0029391178
      2.1870538152     -2.3014100059      1.5351873644
     -1.6122257359     -4.0197988540      1.1075679668
     -6.0838820005      7.7380074549      6.3401070450
