          70
  Built with Packmol                                             
  B            8.919324        2.744373        1.125561
  O            9.789753        2.957769        2.118555
  O            7.986652        1.784456        1.208090
  O            8.942604        3.481549        0.005648
  B            8.432463        9.416778        9.732817
  O            8.527612       10.686636        9.323392
  O            9.209452        8.455083        9.213626
  O            7.556091        9.051905       10.679926
  B            0.928777        6.346393        4.601279
  O            1.214719        6.849090        3.395147
  O            0.466836        7.124360        5.590980
  O            1.091877        5.043116        4.871546
  B            4.982186       12.165972        8.245079
  O            6.131031       12.837499        8.109328
  O            3.953687       12.673978        8.939520
  O            4.810470       10.956393        7.692259
  B            3.733246        4.176505        2.042998
  O            2.830365        5.054533        2.493659
  O            4.356892        4.355563        0.869484
  O            4.052944        3.080179        2.745877
  B            2.738991       10.011488        1.448697
  O            3.176461       11.266057        1.603284
  O            1.787057        9.708604        0.554151
  O            3.234086        9.003653        2.181722
  B            1.152716       11.679296       10.143763
  O            0.202895       10.752177       10.309630
  O            0.847634       12.980493       10.034494
  O            2.450178       11.346594       10.079910
  B            7.923579        9.887484       12.795154
  O            8.153603       11.198745       12.925179
  O            8.898279        9.039211       12.436656
  O            6.708491        9.365873       13.017998
  B            4.420237        4.584567        8.544482
  O            4.514984        3.915332        9.698764
  O            4.605617        3.973636        7.365275
  O            4.135695        5.894721        8.517857
  B           10.990871       10.002803        2.507797
  O           10.743373        9.353406        1.364884
  O           11.451903        9.360404        3.590804
  O           10.788515       11.323760        2.618699
  Li           6.743818        6.940842        4.204169
  Li           2.420060        9.089919       11.300517
  Li          10.523930       11.732193        7.009362
  Li           5.585338        9.176931        3.929558
  Li           1.208304        2.868496        1.064081
  Li          10.999290        2.061914        0.000380
  Li           8.710867        4.173442       11.449287
  Li           1.553661       10.196420        4.422666
  Li           5.172691       11.804185       11.975191
  Li           8.233301       12.930653        2.853523
  Li           1.133719       11.697828        7.541699
  Li           6.555849        3.259539        5.599796
  Li          12.022972        6.751851       10.670438
  Li           8.148531        3.741080        7.657599
  Li           3.174580        0.000647        9.801296
  Na           7.228153        5.280602        2.522595
  Na           1.491096       11.463609       12.997085
  Na          11.561450        7.831306        8.097360
  Na          10.481125        5.508820       12.311291
  Na          12.167832        5.173641        1.210164
  Na           9.261062        8.715968        3.590528
  Na          12.248046        1.408606        1.889682
  Na           6.481458        7.971436        8.895468
  Na           4.464026        4.685690        5.099934
  Na           5.702097        2.987324       11.404751
  Na           4.115699        6.846106        4.123615
  Na          10.551543       10.739647       12.075458
  Na           9.693626        8.612124        6.514507
  Na           8.308615        1.848990        4.872776
  Na           0.996735        1.257910        8.743824
