B10 O38 C4 Na15 Li15
1.0
  1.0253056000e+01  0.0000000000e+00  0.0000000000e+00
  0.0000000000e+00  1.0253056000e+01  0.0000000000e+00
  0.0000000000e+00  0.0000000000e+00  1.0253056000e+01
B O C Na Li
10 38 4 15 15
Cartesian
     -2.3231268721      1.3591543598      3.5758711139
      4.1461881884     -1.1741321862     -0.3582474386
      0.9904666709     -1.6715481061      3.5676742481
      0.7161866644      1.8668084637      8.6519092657
      4.0475633401      5.4732922143      5.2768392681
     -0.2308814568      6.2218159243      7.4383802171
     -1.0411166807      0.6545877448     -1.7708642839
      2.1101645073     -4.5432135376      8.6673361531
     -1.4977750915      4.7803157724      5.5841113415
      0.1336246992      6.9857817600     11.9069469169
     -2.2397438134      1.0813121780      2.2165028742
     -3.5040534580      2.2054357644      3.9417502639
     -1.5303501710      0.6848849623      4.3960499013
      2.8306555429     -1.1146291531     -0.0487411150
      4.7435736177     -2.1288256862     -1.2856728738
      4.9364233142     -0.3778143220      0.2957344571
     -0.0713829446     -2.0622206375      2.5183490625
      0.5774145614     -2.1555456634      4.8672713767
      2.1608455017     -1.0304605430      3.3649632194
      2.0382646853      2.1575282807      8.4886883099
     -0.0052662079      2.2990519246      9.8279403904
     -0.1453408415      1.4358624258      7.5834421434
      5.0445906404      6.3973950015      5.6218742160
      2.8434600291      5.6620221093      4.6752566165
      4.6097434370      4.0403541871      5.4017999928
     -0.3321210093      5.1872563428      6.3247911322
     -1.0787832506      7.2744129782      7.6276425145
      0.5432159392      5.5511332477      8.3750396037
     -2.2970088662      1.2491607607     -1.6546452494
     -0.6628370450     -0.4840729659     -1.2176176308
      2.8311449601     -5.2631465159      9.4622987122
      2.4139631844     -3.6388567601      7.7930181331
     -1.5914973498      5.1839332264      4.1825995411
     -2.6102966703      4.4974999324      6.3478667297
      1.1081891380      5.8647964516     12.0300788958
     -0.9239135860      6.9281771993     11.0215295409
      1.9202722058      2.2374135452      4.6646609959
      3.5866358231      2.2861798912      2.9624580205
      1.2826425469      2.7865724796      2.4734382147
      7.1659347799      4.1881301187      9.3525968443
      7.8519171550      3.7240178483     11.4015220032
      5.8843638045      2.8825152964     10.8200440869
      6.2567032008     -4.4848178327      2.6601585418
      4.5392408995     -3.1264138634      2.3489002535
      6.4031968880     -2.2722182394      3.3417178844
      4.3798053622      1.4606733739      6.4600728536
      3.3546013099     -0.6155946630      6.7456563401
      5.4343660500     -0.6698063049      5.9404992506
      2.2952116050      2.4229617346      3.4555107739
      6.9685090889      3.5778545254     10.6087676568
      5.7845330313     -3.3524606748      2.8261368896
      4.4155731992      0.0517121186      6.3945812698
      7.5241282172     -4.3899328091      8.2187804775
     -2.5526098680     -1.1485216156     12.1109725574
      1.3268099228     -0.4155099241      1.4440946994
     -1.5486948647     -2.1155188065      5.0625567015
      5.1946786304      4.1670440587      8.0432904042
      0.5823630464      4.9893456605     14.1848377130
      4.3222722245     -5.6247721425      1.5553386456
      2.8153665572      2.7329288739      0.3347191339
      0.2357515700     -5.8211781156     10.6100251809
     -3.3073861632      1.7513712811      6.1663609105
     -6.2392499147     -0.8512683985      2.2924352399
      0.5112741918      0.4290922975      5.5546649337
      1.3256270024      3.6640391489      6.1311837090
      6.1473190615     -0.7023344791      8.4721101612
      1.4735804016     -1.6362896172      8.7857901880
      2.4729748566     -3.6770307532      2.8266200906
     -2.4082114412      1.2380785616      0.1865875600
     -5.4136507292      2.4968249166      4.5404245780
     -3.1341070916     -6.2568014972      3.0523593878
     -1.0904278071     -2.1495124219      9.2304947135
     -0.5091915166      1.8264712343      1.8486540878
     -4.0755245662      4.9591253855      5.2136116523
     -1.7882821860      2.9927089890      8.5310349828
     -7.6924469467      0.8784020783      7.2935263497
      1.8586739659     -3.1755989866      5.6816722156
      4.1422019173      7.8371101847      7.0982673892
      6.2548874576      1.7398166982      2.0216454158
      3.7962973290     -3.3993074140     -0.7661086265
     -2.0500976549     -4.0821053630      2.0326151967
     -5.0151740413      8.0962924844      5.0306820943
