
70 atoms
4 atom types
   0.0000000000    9.3139424200 xlo xhi
   0.0000000000    9.3139424200 ylo yhi
   0.0000000000    9.3139424200 zlo zhi
   0.0000000000    0.0000000000    0.0000000000 xy xz yz

Atoms # atomic

     1      1    6.4246959388    4.0400254730   -1.6813514445
     2      1    9.9295135825    5.8525281240    4.4696108171
     3      1    3.9854012125    4.6592532158    2.4152616093
     4      1    7.2382673692   10.5491260304    4.5540532704
     5      1    1.9338181764    3.5292940918   -1.4984056101
     6      1    5.5644302169    9.4528221753    1.1758355779
     7      1    3.3933815934    8.9707055786    5.6277015894
     8      1    8.6459974067    8.8780609165    7.1027609819
     9      1    6.7713891722    5.8423103714    3.3015422030
    10      1   10.5527535692    8.0198151752   -0.0591175168
    11      2    6.0523341977    3.0325717259   -0.9057646572
    12      2    7.4831387930    4.1330064322   -2.3867967835
    13      2    5.8313527038    5.3282069944   -1.3045963337
    14      2   10.2933549430    7.0271304189    3.8399519787
    15      2   10.0201307019    4.5833689804    3.8848946612
    16      2    9.7692100304    6.0729406665    5.9136828447
    17      2    4.0008792425    4.2095656278    3.7644465476
    18      2    3.6167304233    6.0669075482    2.2601327291
    19      2    4.4557622930    3.8736954479    1.3256392130
    20      2    8.3638511613   11.2640722149    4.6542724751
    21      2    5.9614194956   11.0316628535    4.8969620928
    22      2    7.3341644411    9.2544890705    4.1021958878
    23      2    1.5150153576    3.5973604647   -0.1246110718
    24      2    1.0272751383    2.9105659715   -2.4018273297
    25      2    3.1120189730    4.1177499817   -1.9786872708
    26      2    4.9221393459    8.5952632575    0.3806143231
    27      2    4.7951459803   10.0686600327    2.1639091525
    28      2    6.9452333558    9.7851193309    1.0467504902
    29      2    3.7928871532    9.2101556656    6.9717641208
    30      2    3.8914353478    7.8988060391    4.9464262776
    31      2    2.7211597198   10.0102334312    4.9440069228
    32      2   10.0123135003    8.8236430368    6.8245701414
    33      2    7.9129696624   10.0901133310    7.4217930361
    34      2    7.8151712506    7.7073353847    7.0848398138
    35      2    7.1518785050    4.5722751902    3.1265727030
    36      2    6.6995122631    6.7000568005    2.1862263252
    37      2    6.2433882124    6.2424867600    4.5336703588
    38      2    9.5477978343    7.1858417852    0.5548895442
    39      2   10.7881521005    9.3698668470    0.2913613383
    40      2   11.4638019784    7.2965056333   -0.7483012011
    41      3    6.0868272033    8.0769040647    3.6318436488
    42      3    3.3287940814    8.7871694493    8.7201950545
    43      3   10.8277355070    7.2627897119    6.7889152601
    44      3    6.5242802157   10.5634470088   -0.4884690694
    45      3    4.5372249172    3.9754215478   -0.4279011515
    46      3    9.4222869691    4.1355365191   -3.3823024139
    47      3    6.9027681519    5.9134860649    6.5512777347
    48      3    5.1076635193    6.9185389260    1.3608327456
    49      3    8.2353678365    7.4253146718    5.2231482239
    50      3    7.8277929204   11.6341645144   -2.7814267353
    51      3    3.8591165382    6.2171702264    4.0176652320
    52      3    6.0143036520    4.1631730927    4.5760014685
    53      3   10.7609767199   10.3596176808    6.5001301358
    54      3    8.5008059195    3.3822398262    3.8527625938
    55      3    4.8225113724    0.4088424898    4.0972898942
    56      4    3.8854992581    6.6849530827   -2.1560250674
    57      4    2.7592220139   11.3311362734   10.7118338723
    58      4   11.6252370767    8.3407379461    2.2163869479
    59      4    7.4444190146    7.5382131241    9.1302258093
    60      4   10.5097744762    5.2723366068    1.6559681102
    61      4    8.4986038990    8.3467188027    2.1333925333
    62      4    9.2850397329    1.5766423930   -0.3369200112
    63      4    6.0956443399    8.9028006199    6.5236480986
    64      4    6.7405336122    4.6930587614    0.8513472979
    65      4    2.2757789082    3.0274896858    4.8808222261
    66      4    2.9671551252    5.5070099272    0.1448455677
    67      4    9.5196483529    5.6696846677    8.0200945737
    68      4    9.9086273537    9.1956082416    4.3935670949
    69      4    4.5825381696    2.3696633612   -2.7481062294
    70      4    6.0714446355    2.3936479105    2.6329388772
